(set-logic QF_LRA)
(declare-fun X0 () Real )
(declare-fun Y0 () Real )
(declare-fun X1 () Real )
(declare-fun Y1 () Real )
(declare-fun X2 () Real )
(declare-fun Y2 () Real )
(declare-fun X3 () Real )
(declare-fun Y3 () Real )
(declare-fun X4 () Real )
(declare-fun Y4 () Real )
(declare-fun X5 () Real )
(declare-fun Y5 () Real )
(declare-fun X6 () Real )
(declare-fun Y6 () Real )
(declare-fun X7 () Real )
(declare-fun Y7 () Real )
(declare-fun X8 () Real )
(declare-fun Y8 () Real )
(declare-fun X9 () Real )
(declare-fun Y9 () Real )
(declare-fun X10 () Real )
(declare-fun Y10 () Real )
(declare-fun X11 () Real )
(declare-fun Y11 () Real )
(declare-fun Z () Real )
(assert ( and  
( or ( <= ( + X0 88 ) X1 )  ( <= ( + X1 100 ) X0 )  ( <= ( + Y0 54 ) Y1 )  ( <= ( + Y1 41 ) Y0 )  )
( or ( <= ( + X0 88 ) X2 )  ( <= ( + X2 55 ) X0 )  ( <= ( + Y0 54 ) Y2 )  ( <= ( + Y2 36 ) Y0 )  )
( or ( <= ( + X0 88 ) X3 )  ( <= ( + X3 1 ) X0 )  ( <= ( + Y0 54 ) Y3 )  ( <= ( + Y3 9 ) Y0 )  )
( or ( <= ( + X0 88 ) X4 )  ( <= ( + X4 65 ) X0 )  ( <= ( + Y0 54 ) Y4 )  ( <= ( + Y4 61 ) Y0 )  )
( or ( <= ( + X0 88 ) X5 )  ( <= ( + X5 66 ) X0 )  ( <= ( + Y0 54 ) Y5 )  ( <= ( + Y5 95 ) Y0 )  )
( or ( <= ( + X0 88 ) X6 )  ( <= ( + X6 66 ) X0 )  ( <= ( + Y0 54 ) Y6 )  ( <= ( + Y6 4 ) Y0 )  )
( or ( <= ( + X0 88 ) X7 )  ( <= ( + X7 63 ) X0 )  ( <= ( + Y0 54 ) Y7 )  ( <= ( + Y7 11 ) Y0 )  )
( or ( <= ( + X0 88 ) X8 )  ( <= ( + X8 54 ) X0 )  ( <= ( + Y0 54 ) Y8 )  ( <= ( + Y8 96 ) Y0 )  )
( or ( <= ( + X0 88 ) X9 )  ( <= ( + X9 24 ) X0 )  ( <= ( + Y0 54 ) Y9 )  ( <= ( + Y9 57 ) Y0 )  )
( or ( <= ( + X0 88 ) X10 )  ( <= ( + X10 85 ) X0 )  ( <= ( + Y0 54 ) Y10 )  ( <= ( + Y10 76 ) Y0 )  )
( or ( <= ( + X0 88 ) X11 )  ( <= ( + X11 37 ) X0 )  ( <= ( + Y0 54 ) Y11 )  ( <= ( + Y11 7 ) Y0 )  )
( or ( <= ( + X1 100 ) X2 )  ( <= ( + X2 55 ) X1 )  ( <= ( + Y1 41 ) Y2 )  ( <= ( + Y2 36 ) Y1 )  )
( or ( <= ( + X1 100 ) X3 )  ( <= ( + X3 1 ) X1 )  ( <= ( + Y1 41 ) Y3 )  ( <= ( + Y3 9 ) Y1 )  )
( or ( <= ( + X1 100 ) X4 )  ( <= ( + X4 65 ) X1 )  ( <= ( + Y1 41 ) Y4 )  ( <= ( + Y4 61 ) Y1 )  )
( or ( <= ( + X1 100 ) X5 )  ( <= ( + X5 66 ) X1 )  ( <= ( + Y1 41 ) Y5 )  ( <= ( + Y5 95 ) Y1 )  )
( or ( <= ( + X1 100 ) X6 )  ( <= ( + X6 66 ) X1 )  ( <= ( + Y1 41 ) Y6 )  ( <= ( + Y6 4 ) Y1 )  )
( or ( <= ( + X1 100 ) X7 )  ( <= ( + X7 63 ) X1 )  ( <= ( + Y1 41 ) Y7 )  ( <= ( + Y7 11 ) Y1 )  )
( or ( <= ( + X1 100 ) X8 )  ( <= ( + X8 54 ) X1 )  ( <= ( + Y1 41 ) Y8 )  ( <= ( + Y8 96 ) Y1 )  )
( or ( <= ( + X1 100 ) X9 )  ( <= ( + X9 24 ) X1 )  ( <= ( + Y1 41 ) Y9 )  ( <= ( + Y9 57 ) Y1 )  )
( or ( <= ( + X1 100 ) X10 )  ( <= ( + X10 85 ) X1 )  ( <= ( + Y1 41 ) Y10 )  ( <= ( + Y10 76 ) Y1 )  )
( or ( <= ( + X1 100 ) X11 )  ( <= ( + X11 37 ) X1 )  ( <= ( + Y1 41 ) Y11 )  ( <= ( + Y11 7 ) Y1 )  )
( or ( <= ( + X2 55 ) X3 )  ( <= ( + X3 1 ) X2 )  ( <= ( + Y2 36 ) Y3 )  ( <= ( + Y3 9 ) Y2 )  )
( or ( <= ( + X2 55 ) X4 )  ( <= ( + X4 65 ) X2 )  ( <= ( + Y2 36 ) Y4 )  ( <= ( + Y4 61 ) Y2 )  )
( or ( <= ( + X2 55 ) X5 )  ( <= ( + X5 66 ) X2 )  ( <= ( + Y2 36 ) Y5 )  ( <= ( + Y5 95 ) Y2 )  )
( or ( <= ( + X2 55 ) X6 )  ( <= ( + X6 66 ) X2 )  ( <= ( + Y2 36 ) Y6 )  ( <= ( + Y6 4 ) Y2 )  )
( or ( <= ( + X2 55 ) X7 )  ( <= ( + X7 63 ) X2 )  ( <= ( + Y2 36 ) Y7 )  ( <= ( + Y7 11 ) Y2 )  )
( or ( <= ( + X2 55 ) X8 )  ( <= ( + X8 54 ) X2 )  ( <= ( + Y2 36 ) Y8 )  ( <= ( + Y8 96 ) Y2 )  )
( or ( <= ( + X2 55 ) X9 )  ( <= ( + X9 24 ) X2 )  ( <= ( + Y2 36 ) Y9 )  ( <= ( + Y9 57 ) Y2 )  )
( or ( <= ( + X2 55 ) X10 )  ( <= ( + X10 85 ) X2 )  ( <= ( + Y2 36 ) Y10 )  ( <= ( + Y10 76 ) Y2 )  )
( or ( <= ( + X2 55 ) X11 )  ( <= ( + X11 37 ) X2 )  ( <= ( + Y2 36 ) Y11 )  ( <= ( + Y11 7 ) Y2 )  )
( or ( <= ( + X3 1 ) X4 )  ( <= ( + X4 65 ) X3 )  ( <= ( + Y3 9 ) Y4 )  ( <= ( + Y4 61 ) Y3 )  )
( or ( <= ( + X3 1 ) X5 )  ( <= ( + X5 66 ) X3 )  ( <= ( + Y3 9 ) Y5 )  ( <= ( + Y5 95 ) Y3 )  )
( or ( <= ( + X3 1 ) X6 )  ( <= ( + X6 66 ) X3 )  ( <= ( + Y3 9 ) Y6 )  ( <= ( + Y6 4 ) Y3 )  )
( or ( <= ( + X3 1 ) X7 )  ( <= ( + X7 63 ) X3 )  ( <= ( + Y3 9 ) Y7 )  ( <= ( + Y7 11 ) Y3 )  )
( or ( <= ( + X3 1 ) X8 )  ( <= ( + X8 54 ) X3 )  ( <= ( + Y3 9 ) Y8 )  ( <= ( + Y8 96 ) Y3 )  )
( or ( <= ( + X3 1 ) X9 )  ( <= ( + X9 24 ) X3 )  ( <= ( + Y3 9 ) Y9 )  ( <= ( + Y9 57 ) Y3 )  )
( or ( <= ( + X3 1 ) X10 )  ( <= ( + X10 85 ) X3 )  ( <= ( + Y3 9 ) Y10 )  ( <= ( + Y10 76 ) Y3 )  )
( or ( <= ( + X3 1 ) X11 )  ( <= ( + X11 37 ) X3 )  ( <= ( + Y3 9 ) Y11 )  ( <= ( + Y11 7 ) Y3 )  )
( or ( <= ( + X4 65 ) X5 )  ( <= ( + X5 66 ) X4 )  ( <= ( + Y4 61 ) Y5 )  ( <= ( + Y5 95 ) Y4 )  )
( or ( <= ( + X4 65 ) X6 )  ( <= ( + X6 66 ) X4 )  ( <= ( + Y4 61 ) Y6 )  ( <= ( + Y6 4 ) Y4 )  )
( or ( <= ( + X4 65 ) X7 )  ( <= ( + X7 63 ) X4 )  ( <= ( + Y4 61 ) Y7 )  ( <= ( + Y7 11 ) Y4 )  )
( or ( <= ( + X4 65 ) X8 )  ( <= ( + X8 54 ) X4 )  ( <= ( + Y4 61 ) Y8 )  ( <= ( + Y8 96 ) Y4 )  )
( or ( <= ( + X4 65 ) X9 )  ( <= ( + X9 24 ) X4 )  ( <= ( + Y4 61 ) Y9 )  ( <= ( + Y9 57 ) Y4 )  )
( or ( <= ( + X4 65 ) X10 )  ( <= ( + X10 85 ) X4 )  ( <= ( + Y4 61 ) Y10 )  ( <= ( + Y10 76 ) Y4 )  )
( or ( <= ( + X4 65 ) X11 )  ( <= ( + X11 37 ) X4 )  ( <= ( + Y4 61 ) Y11 )  ( <= ( + Y11 7 ) Y4 )  )
( or ( <= ( + X5 66 ) X6 )  ( <= ( + X6 66 ) X5 )  ( <= ( + Y5 95 ) Y6 )  ( <= ( + Y6 4 ) Y5 )  )
( or ( <= ( + X5 66 ) X7 )  ( <= ( + X7 63 ) X5 )  ( <= ( + Y5 95 ) Y7 )  ( <= ( + Y7 11 ) Y5 )  )
( or ( <= ( + X5 66 ) X8 )  ( <= ( + X8 54 ) X5 )  ( <= ( + Y5 95 ) Y8 )  ( <= ( + Y8 96 ) Y5 )  )
( or ( <= ( + X5 66 ) X9 )  ( <= ( + X9 24 ) X5 )  ( <= ( + Y5 95 ) Y9 )  ( <= ( + Y9 57 ) Y5 )  )
( or ( <= ( + X5 66 ) X10 )  ( <= ( + X10 85 ) X5 )  ( <= ( + Y5 95 ) Y10 )  ( <= ( + Y10 76 ) Y5 )  )
( or ( <= ( + X5 66 ) X11 )  ( <= ( + X11 37 ) X5 )  ( <= ( + Y5 95 ) Y11 )  ( <= ( + Y11 7 ) Y5 )  )
( or ( <= ( + X6 66 ) X7 )  ( <= ( + X7 63 ) X6 )  ( <= ( + Y6 4 ) Y7 )  ( <= ( + Y7 11 ) Y6 )  )
( or ( <= ( + X6 66 ) X8 )  ( <= ( + X8 54 ) X6 )  ( <= ( + Y6 4 ) Y8 )  ( <= ( + Y8 96 ) Y6 )  )
( or ( <= ( + X6 66 ) X9 )  ( <= ( + X9 24 ) X6 )  ( <= ( + Y6 4 ) Y9 )  ( <= ( + Y9 57 ) Y6 )  )
( or ( <= ( + X6 66 ) X10 )  ( <= ( + X10 85 ) X6 )  ( <= ( + Y6 4 ) Y10 )  ( <= ( + Y10 76 ) Y6 )  )
( or ( <= ( + X6 66 ) X11 )  ( <= ( + X11 37 ) X6 )  ( <= ( + Y6 4 ) Y11 )  ( <= ( + Y11 7 ) Y6 )  )
( or ( <= ( + X7 63 ) X8 )  ( <= ( + X8 54 ) X7 )  ( <= ( + Y7 11 ) Y8 )  ( <= ( + Y8 96 ) Y7 )  )
( or ( <= ( + X7 63 ) X9 )  ( <= ( + X9 24 ) X7 )  ( <= ( + Y7 11 ) Y9 )  ( <= ( + Y9 57 ) Y7 )  )
( or ( <= ( + X7 63 ) X10 )  ( <= ( + X10 85 ) X7 )  ( <= ( + Y7 11 ) Y10 )  ( <= ( + Y10 76 ) Y7 )  )
( or ( <= ( + X7 63 ) X11 )  ( <= ( + X11 37 ) X7 )  ( <= ( + Y7 11 ) Y11 )  ( <= ( + Y11 7 ) Y7 )  )
( or ( <= ( + X8 54 ) X9 )  ( <= ( + X9 24 ) X8 )  ( <= ( + Y8 96 ) Y9 )  ( <= ( + Y9 57 ) Y8 )  )
( or ( <= ( + X8 54 ) X10 )  ( <= ( + X10 85 ) X8 )  ( <= ( + Y8 96 ) Y10 )  ( <= ( + Y10 76 ) Y8 )  )
( or ( <= ( + X8 54 ) X11 )  ( <= ( + X11 37 ) X8 )  ( <= ( + Y8 96 ) Y11 )  ( <= ( + Y11 7 ) Y8 )  )
( or ( <= ( + X9 24 ) X10 )  ( <= ( + X10 85 ) X9 )  ( <= ( + Y9 57 ) Y10 )  ( <= ( + Y10 76 ) Y9 )  )
( or ( <= ( + X9 24 ) X11 )  ( <= ( + X11 37 ) X9 )  ( <= ( + Y9 57 ) Y11 )  ( <= ( + Y11 7 ) Y9 )  )
( or ( <= ( + X10 85 ) X11 )  ( <= ( + X11 37 ) X10 )  ( <= ( + Y10 76 ) Y11 )  ( <= ( + Y11 7 ) Y10 )  )
( >= X0 0)
( <= ( + X0 88) Z)
( >= Y0 0)
( <= ( + Y0 54 ) 100)
( >= X1 0)
( <= ( + X1 100) Z)
( >= Y1 0)
( <= ( + Y1 41 ) 100)
( >= X2 0)
( <= ( + X2 55) Z)
( >= Y2 0)
( <= ( + Y2 36 ) 100)
( >= X3 0)
( <= ( + X3 1) Z)
( >= Y3 0)
( <= ( + Y3 9 ) 100)
( >= X4 0)
( <= ( + X4 65) Z)
( >= Y4 0)
( <= ( + Y4 61 ) 100)
( >= X5 0)
( <= ( + X5 66) Z)
( >= Y5 0)
( <= ( + Y5 95 ) 100)
( >= X6 0)
( <= ( + X6 66) Z)
( >= Y6 0)
( <= ( + Y6 4 ) 100)
( >= X7 0)
( <= ( + X7 63) Z)
( >= Y7 0)
( <= ( + Y7 11 ) 100)
( >= X8 0)
( <= ( + X8 54) Z)
( >= Y8 0)
( <= ( + Y8 96 ) 100)
( >= X9 0)
( <= ( + X9 24) Z)
( >= Y9 0)
( <= ( + Y9 57 ) 100)
( >= X10 0)
( <= ( + X10 85) Z)
( >= Y10 0)
( <= ( + Y10 76 ) 100)
( >= X11 0)
( <= ( + X11 37) Z)
( >= Y11 0)
( <= ( + Y11 7 ) 100)
) )
(minimize Z)
(check-sat)
